27      4       
10      10      10      10      
0       0       0       0       0       3       2       3       5       
2       4       0       0       6       2       4       9       
7       0       0       3       6       2       6       9       
10      0       0       9       10      1       6       
2       7       0       4       0       1       6       
1       7       0       6       0       2       7       10      
1       0       1       0       5       2       8       12      
6       0       0       7       7       5       11      13      15      16      18      
7       0       6       8       0       5       11      12      15      18      21      
4       5       0       0       9       2       11      15      
2       9       10      0       0       2       14      19      
2       7       0       0       9       2       14      19      
1       6       5       0       0       2       14      21      
1       10      10      0       0       2       17      23      
7       6       0       0       9       4       20      23      24      26      
2       5       7       0       0       2       19      26      
6       0       0       10      10      3       20      24      26      
3       9       10      0       0       3       22      24      26      
6       0       10      0       10      2       20      23      
2       7       0       10      0       1       22      
5       9       0       0       5       1       22      
3       9       0       0       6       1       25      
2       10      8       0       0       1       25      
7       10      0       0       5       1       25      
4       0       0       8       10      1       27      
5       0       0       10      5       1       27      
0       0       0       0       0       0       
